s td 36 15 50
b 1 36 47
b 2 5 12 15
b 3 1 5 24
b 4 23 45 50
b 5 3 33 34 43
b 6 10 13 22 28
b 7 2 25 29 38
b 8 1 4 10 16 17 22 25 26 28 29 33 36 45 46 48
b 9 4 16 25 28 29 33 34 36 46
b 10 11 16 25 28 29 33 34 46
b 11 2 11 25 28 29 33 34
b 12 2 11 28 33 34 43
b 13 1 4 10 12 16 17 22 26 28 29 33 36 45 46 48
b 14 1 4 7 10 12 16 22 28 29 33 36 45 46 48
b 15 1 4 7 10 12 16 22 28 29 36 40 45 46
b 16 1 7 10 12 16 19 22 28 36 40 46
b 17 1 8 10 12 16 19 22 36 40 46
b 18 1 5 8 10 12 22
b 19 5 8 10 39
b 20 1 4 9 10 17 22 25 26 28 29 33 36 45 46 48
b 21 9 22 29 33 36 37 45 46 48
b 22 9 22 29 35 37 48
b 23 6 35 37 48
b 24 9 14 17 33
b 25 1 4 9 10 17 22 23 25 26 28 36 45 46 48
b 26 4 9 10 17 22 23 25 26 28 30 36 45 46 48
b 27 4 9 10 17 22 23 25 26 28 30 31 45 46 48
b 28 4 10 17 21 22 23 25 28 30 31 45 46 48
b 29 17 21 22 23 25 28 30 31 41 45 46 48
b 30 17 18 21 22 23 25 28 30 41 45 48
b 31 17 18 21 22 23 28 30 41 48 49
b 32 17 18 21 28 30 42 48 49
b 33 10 21 23 27 31 48
b 34 4 20 23 30 36 48
b 35 20 32 36 48
b 36 4 9 25 36 44
1 8
2 18
3 18
4 25
5 12
6 8
7 11
8 9
8 13
8 20
9 10
10 11
11 12
13 14
14 15
15 16
16 17
17 18
18 19
20 21
20 24
20 25
20 36
21 22
22 23
25 26
26 27
26 34
27 28
28 29
28 33
29 30
30 31
31 32
34 35
